Instance name : SB_bar-n100-6
Authors : 
Date : 
Reference 
Solution
Route 1 : 37 1 30 51 40 48 87 11 80 90 9 98 27 77 45 59 61 95 
Route 2 : 4 29 54 32 82 79 47 15 97 23 65 7 73 57 8 18 68 35 14 85 64 10 58 50 60 24 39 100 89 74 
Route 3 : 20 43 93 70 41 16 66 12 91 62 21 42 19 71 6 92 56 36 13 69 46 86 26 63 76 96 
Route 4 : 31 81 38 34 22 72 88 84 28 44 94 5 17 67 78 3 49 2 52 53 25 99 55 75 33 83 
